54
1 0 10
2 0 4
2 1 6
3 0 6
3 1 2
3 2 2
4 0 13
4 1 9
4 2 6
4 3 12
5 0 10
5 1 5
5 2 9
5 3 4
5 4 12
6 0 6
6 1 14
6 2 15
6 3 5
6 4 9
6 5 8
7 0 3
7 1 11
7 2 11
7 3 8
7 4 14
7 5 14
7 6 3
8 0 4
8 1 5
8 2 3
8 3 4
8 4 9
8 5 13
8 6 11
8 7 11
9 0 2
9 1 9
9 2 12
9 3 12
9 4 8
9 5 11
9 6 5
9 7 14
9 8 14
10 0 3
10 1 7
10 2 1
10 3 15
10 4 6
10 5 8
10 6 15
10 7 1
10 8 9
10 9 14
11 0 11
11 1 9
11 2 3
11 3 5
11 4 2
11 5 14
11 6 4
11 7 4
11 8 11
11 9 1
11 10 5
12 0 12
12 1 13
12 2 15
12 3 2
12 4 6
12 5 6
12 6 4
12 7 2
12 8 6
12 9 5
12 10 8
12 11 14
13 0 6
13 1 2
13 2 12
13 3 8
13 4 4
13 5 5
13 6 1
13 7 3
13 8 6
13 9 15
13 10 5
13 11 2
13 12 6
14 0 7
14 1 13
14 2 11
14 3 14
14 4 14
14 5 4
14 6 9
14 7 6
14 8 4
14 9 5
14 10 15
14 11 7
14 12 1
14 13 11
15 0 13
15 1 13
15 2 1
15 3 9
15 4 10
15 5 6
15 6 13
15 7 8
15 8 7
15 9 4
15 10 14
15 11 15
15 12 8
15 13 7
15 14 14
16 0 14
16 1 3
16 2 10
16 3 7
16 4 3
16 5 3
16 6 6
16 7 11
16 8 9
16 9 13
16 10 14
16 11 6
16 12 5
16 13 4
16 14 13
16 15 6
17 0 7
17 1 15
17 2 4
17 3 7
17 4 4
17 5 14
17 6 2
17 7 11
17 8 9
17 9 13
17 10 1
17 11 14
17 12 7
17 13 9
17 14 13
17 15 1
17 16 13
18 0 13
18 1 9
18 2 13
18 3 14
18 4 1
18 5 13
18 6 14
18 7 15
18 8 2
18 9 13
18 10 2
18 11 15
18 12 10
18 13 3
18 14 1
18 15 5
18 16 8
18 17 11
19 0 15
19 1 15
19 2 6
19 3 9
19 4 7
19 5 8
19 6 15
19 7 14
19 8 1
19 9 15
19 10 5
19 11 1
19 12 13
19 13 7
19 14 13
19 15 7
19 16 4
19 17 2
19 18 8
20 0 3
20 1 1
20 2 15
20 3 1
20 4 11
20 5 11
20 6 3
20 7 11
20 8 4
20 9 12
20 10 10
20 11 14
20 12 5
20 13 6
20 14 10
20 15 7
20 16 11
20 17 4
20 18 8
20 19 15
21 0 3
21 1 7
21 2 9
21 3 10
21 4 8
21 5 5
21 6 13
21 7 7
21 8 12
21 9 11
21 10 14
21 11 14
21 12 10
21 13 14
21 14 14
21 15 6
21 16 8
21 17 2
21 18 1
21 19 5
21 20 2
22 0 14
22 1 9
22 2 3
22 3 13
22 4 10
22 5 10
22 6 12
22 7 2
22 8 1
22 9 4
22 10 3
22 11 4
22 12 2
22 13 8
22 14 10
22 15 13
22 16 11
22 17 6
22 18 5
22 19 7
22 20 9
22 21 3
23 0 11
23 1 6
23 2 5
23 3 2
23 4 14
23 5 8
23 6 14
23 7 14
23 8 7
23 9 4
23 10 2
23 11 3
23 12 13
23 13 9
23 14 9
23 15 13
23 16 3
23 17 12
23 18 11
23 19 6
23 20 12
23 21 13
23 22 9
24 0 14
24 1 13
24 2 12
24 3 1
24 4 5
24 5 13
24 6 10
24 7 3
24 8 12
24 9 11
24 10 6
24 11 12
24 12 14
24 13 8
24 14 12
24 15 12
24 16 9
24 17 6
24 18 9
24 19 13
24 20 4
24 21 5
24 22 10
24 23 7
25 0 6
25 1 1
25 2 11
25 3 14
25 4 2
25 5 10
25 6 1
25 7 13
25 8 6
25 9 1
25 10 8
25 11 15
25 12 6
25 13 7
25 14 3
25 15 2
25 16 12
25 17 4
25 18 12
25 19 1
25 20 15
25 21 12
25 22 13
25 23 4
25 24 5
26 0 3
26 1 15
26 2 7
26 3 2
26 4 12
26 5 15
26 6 8
26 7 15
26 8 4
26 9 6
26 10 7
26 11 2
26 12 13
26 13 10
26 14 7
26 15 10
26 16 12
26 17 11
26 18 5
26 19 14
26 20 6
26 21 11
26 22 9
26 23 9
26 24 6
26 25 11
27 0 13
27 1 5
27 2 9
27 3 9
27 4 5
27 5 6
27 6 8
27 7 15
27 8 3
27 9 2
27 10 10
27 11 13
27 12 15
27 13 12
27 14 8
27 15 13
27 16 10
27 17 2
27 18 4
27 19 1
27 20 13
27 21 7
27 22 6
27 23 14
27 24 8
27 25 11
27 26 3
28 0 12
28 1 4
28 2 1
28 3 15
28 4 1
28 5 10
28 6 10
28 7 11
28 8 9
28 9 3
28 10 10
28 11 12
28 12 5
28 13 7
28 14 5
28 15 11
28 16 7
28 17 5
28 18 1
28 19 6
28 20 12
28 21 14
28 22 4
28 23 8
28 24 11
28 25 7
28 26 11
28 27 2
29 0 4
29 1 12
29 2 7
29 3 12
29 4 14
29 5 8
29 6 13
29 7 13
29 8 11
29 9 14
29 10 4
29 11 11
29 12 13
29 13 11
29 14 5
29 15 9
29 16 10
29 17 2
29 18 4
29 19 15
29 20 9
29 21 4
29 22 12
29 23 7
29 24 11
29 25 10
29 26 2
29 27 4
29 28 1
30 0 13
30 1 12
30 2 5
30 3 4
30 4 5
30 5 14
30 6 7
30 7 15
30 8 12
30 9 1
30 10 15
30 11 11
30 12 7
30 13 6
30 14 5
30 15 10
30 16 5
30 17 9
30 18 10
30 19 7
30 20 5
30 21 6
30 22 3
30 23 8
30 24 2
30 25 6
30 26 10
30 27 5
30 28 11
30 29 6
31 0 2
31 1 12
31 2 11
31 3 9
31 4 11
31 5 3
31 6 2
31 7 12
31 8 3
31 9 3
31 10 7
31 11 2
31 12 9
31 13 11
31 14 2
31 15 4
31 16 3
31 17 1
31 18 8
31 19 3
31 20 2
31 21 3
31 22 15
31 23 14
31 24 10
31 25 6
31 26 10
31 27 1
31 28 2
31 29 3
31 30 15
32 0 2
32 1 2
32 2 13
32 3 6
32 4 10
32 5 3
32 6 1
32 7 11
32 8 4
32 9 13
32 10 3
32 11 3
32 12 6
32 13 8
32 14 7
32 15 10
32 16 6
32 17 9
32 18 8
32 19 10
32 20 3
32 21 6
32 22 6
32 23 11
32 24 8
32 25 10
32 26 14
32 27 11
32 28 1
32 29 11
32 30 8
32 31 7
33 0 11
33 1 10
33 2 15
33 3 11
33 4 8
33 5 7
33 6 2
33 7 11
33 8 10
33 9 4
33 10 9
33 11 15
33 12 8
33 13 15
33 14 10
33 15 1
33 16 8
33 17 3
33 18 10
33 19 4
33 20 8
33 21 11
33 22 2
33 23 3
33 24 11
33 25 8
33 26 3
33 27 14
33 28 10
33 29 13
33 30 12
33 31 5
33 32 9
34 0 11
34 1 5
34 2 3
34 3 8
34 4 13
34 5 5
34 6 6
34 7 4
34 8 5
34 9 7
34 10 7
34 11 10
34 12 3
34 13 11
34 14 6
34 15 2
34 16 5
34 17 11
34 18 3
34 19 13
34 20 3
34 21 10
34 22 14
34 23 12
34 24 13
34 25 1
34 26 14
34 27 6
34 28 13
34 29 4
34 30 3
34 31 11
34 32 15
34 33 1
35 0 5
35 1 5
35 2 8
35 3 6
35 4 10
35 5 11
35 6 2
35 7 5
35 8 14
35 9 6
35 10 1
35 11 1
35 12 9
35 13 15
35 14 1
35 15 9
35 16 13
35 17 15
35 18 10
35 19 2
35 20 14
35 21 5
35 22 6
35 23 3
35 24 14
35 25 5
35 26 14
35 27 12
35 28 1
35 29 3
35 30 2
35 31 3
35 32 10
35 33 13
35 34 12
36 0 3
36 1 4
36 2 15
36 3 5
36 4 8
36 5 6
36 6 2
36 7 12
36 8 15
36 9 12
36 10 2
36 11 10
36 12 2
36 13 5
36 14 9
36 15 5
36 16 4
36 17 9
36 18 14
36 19 10
36 20 5
36 21 5
36 22 11
36 23 9
36 24 8
36 25 12
36 26 3
36 27 12
36 28 2
36 29 15
36 30 9
36 31 15
36 32 6
36 33 13
36 34 12
36 35 2
37 0 13
37 1 15
37 2 4
37 3 10
37 4 9
37 5 3
37 6 1
37 7 4
37 8 13
37 9 4
37 10 15
37 11 6
37 12 14
37 13 11
37 14 12
37 15 10
37 16 2
37 17 3
37 18 2
37 19 8
37 20 4
37 21 2
37 22 4
37 23 12
37 24 5
37 25 6
37 26 7
37 27 1
37 28 3
37 29 6
37 30 3
37 31 7
37 32 8
37 33 1
37 34 1
37 35 6
37 36 12
38 0 10
38 1 14
38 2 7
38 3 12
38 4 8
38 5 10
38 6 12
38 7 13
38 8 1
38 9 7
38 10 4
38 11 14
38 12 4
38 13 6
38 14 1
38 15 7
38 16 10
38 17 4
38 18 7
38 19 14
38 20 8
38 21 7
38 22 4
38 23 1
38 24 1
38 25 7
38 26 4
38 27 9
38 28 2
38 29 1
38 30 5
38 31 9
38 32 8
38 33 11
38 34 4
38 35 15
38 36 14
38 37 15
39 0 12
39 1 4
39 2 15
39 3 5
39 4 4
39 5 2
39 6 5
39 7 14
39 8 1
39 9 11
39 10 3
39 11 14
39 12 8
39 13 8
39 14 12
39 15 4
39 16 8
39 17 3
39 18 6
39 19 12
39 20 5
39 21 9
39 22 6
39 23 3
39 24 5
39 25 6
39 26 14
39 27 5
39 28 2
39 29 3
39 30 9
39 31 13
39 32 9
39 33 10
39 34 1
39 35 9
39 36 12
39 37 15
39 38 1
40 0 13
40 1 1
40 2 7
40 3 14
40 4 8
40 5 6
40 6 11
40 7 5
40 8 14
40 9 11
40 10 5
40 11 10
40 12 8
40 13 13
40 14 4
40 15 6
40 16 15
40 17 4
40 18 11
40 19 13
40 20 11
40 21 7
40 22 7
40 23 1
40 24 5
40 25 2
40 26 2
40 27 1
40 28 7
40 29 2
40 30 8
40 31 6
40 32 15
40 33 10
40 34 10
40 35 8
40 36 7
40 37 5
40 38 11
40 39 6
41 0 6
41 1 8
41 2 5
41 3 13
41 4 5
41 5 5
41 6 3
41 7 11
41 8 6
41 9 1
41 10 2
41 11 6
41 12 2
41 13 7
41 14 14
41 15 7
41 16 5
41 17 7
41 18 7
41 19 1
41 20 3
41 21 13
41 22 10
41 23 11
41 24 6
41 25 8
41 26 3
41 27 4
41 28 13
41 29 9
41 30 4
41 31 4
41 32 7
41 33 13
41 34 14
41 35 14
41 36 9
41 37 12
41 38 9
41 39 12
41 40 7
42 0 10
42 1 4
42 2 11
42 3 5
42 4 7
42 5 6
42 6 10
42 7 4
42 8 14
42 9 7
42 10 8
42 11 11
42 12 8
42 13 5
42 14 13
42 15 2
42 16 10
42 17 1
42 18 2
42 19 9
42 20 8
42 21 12
42 22 9
42 23 1
42 24 15
42 25 3
42 26 13
42 27 14
42 28 13
42 29 10
42 30 3
42 31 1
42 32 6
42 33 4
42 34 8
42 35 5
42 36 15
42 37 14
42 38 5
42 39 10
42 40 2
42 41 11
43 0 12
43 1 1
43 2 2
43 3 12
43 4 5
43 5 10
43 6 4
43 7 6
43 8 4
43 9 8
43 10 14
43 11 11
43 12 7
43 13 4
43 14 8
43 15 6
43 16 14
43 17 4
43 18 3
43 19 8
43 20 9
43 21 5
43 22 3
43 23 12
43 24 1
43 25 5
43 26 15
43 27 10
43 28 6
43 29 13
43 30 4
43 31 4
43 32 13
43 33 3
43 34 10
43 35 9
43 36 7
43 37 11
43 38 5
43 39 11
43 40 10
43 41 5
43 42 14
44 0 9
44 1 10
44 2 10
44 3 9
44 4 9
44 5 11
44 6 1
44 7 4
44 8 11
44 9 4
44 10 9
44 11 7
44 12 1
44 13 1
44 14 14
44 15 13
44 16 5
44 17 10
44 18 12
44 19 2
44 20 4
44 21 12
44 22 8
44 23 4
44 24 2
44 25 8
44 26 1
44 27 5
44 28 2
44 29 11
44 30 2
44 31 3
44 32 14
44 33 11
44 34 4
44 35 5
44 36 2
44 37 7
44 38 4
44 39 12
44 40 1
44 41 15
44 42 10
44 43 8
45 0 6
45 1 4
45 2 3
45 3 10
45 4 14
45 5 9
45 6 5
45 7 7
45 8 10
45 9 9
45 10 14
45 11 4
45 12 2
45 13 2
45 14 12
45 15 13
45 16 2
45 17 4
45 18 3
45 19 6
45 20 15
45 21 2
45 22 13
45 23 9
45 24 10
45 25 14
45 26 11
45 27 11
45 28 15
45 29 3
45 30 15
45 31 8
45 32 11
45 33 6
45 34 1
45 35 7
45 36 8
45 37 15
45 38 3
45 39 14
45 40 10
45 41 13
45 42 12
45 43 6
45 44 7
46 0 1
46 1 4
46 2 6
46 3 7
46 4 9
46 5 9
46 6 13
46 7 3
46 8 5
46 9 15
46 10 5
46 11 5
46 12 1
46 13 1
46 14 9
46 15 7
46 16 5
46 17 12
46 18 12
46 19 8
46 20 3
46 21 1
46 22 4
46 23 10
46 24 6
46 25 9
46 26 4
46 27 12
46 28 5
46 29 5
46 30 14
46 31 12
46 32 7
46 33 10
46 34 9
46 35 7
46 36 13
46 37 12
46 38 4
46 39 14
46 40 2
46 41 6
46 42 12
46 43 13
46 44 7
46 45 5
47 0 7
47 1 9
47 2 12
47 3 2
47 4 1
47 5 5
47 6 12
47 7 1
47 8 2
47 9 5
47 10 3
47 11 11
47 12 11
47 13 1
47 14 7
47 15 11
47 16 11
47 17 4
47 18 4
47 19 12
47 20 8
47 21 13
47 22 1
47 23 4
47 24 4
47 25 4
47 26 12
47 27 11
47 28 8
47 29 15
47 30 2
47 31 6
47 32 3
47 33 1
47 34 3
47 35 6
47 36 3
47 37 4
47 38 14
47 39 10
47 40 8
47 41 2
47 42 10
47 43 9
47 44 12
47 45 14
47 46 8
48 0 15
48 1 11
48 2 1
48 3 1
48 4 7
48 5 12
48 6 8
48 7 2
48 8 6
48 9 2
48 10 5
48 11 1
48 12 3
48 13 10
48 14 1
48 15 5
48 16 14
48 17 9
48 18 3
48 19 6
48 20 12
48 21 13
48 22 15
48 23 10
48 24 3
48 25 7
48 26 9
48 27 5
48 28 9
48 29 12
48 30 1
48 31 10
48 32 13
48 33 10
48 34 2
48 35 7
48 36 6
48 37 7
48 38 14
48 39 5
48 40 13
48 41 9
48 42 6
48 43 6
48 44 4
48 45 1
48 46 14
48 47 12
49 0 12
49 1 9
49 2 5
49 3 14
49 4 6
49 5 6
49 6 15
49 7 1
49 8 2
49 9 7
49 10 3
49 11 13
49 12 3
49 13 8
49 14 7
49 15 14
49 16 13
49 17 9
49 18 11
49 19 2
49 20 11
49 21 9
49 22 15
49 23 3
49 24 5
49 25 15
49 26 2
49 27 2
49 28 5
49 29 5
49 30 5
49 31 14
49 32 13
49 33 4
49 34 6
49 35 14
49 36 6
49 37 15
49 38 10
49 39 1
49 40 15
49 41 12
49 42 8
49 43 9
49 44 8
49 45 1
49 46 13
49 47 13
49 48 9
50 0 11
50 1 5
50 2 14
50 3 11
50 4 3
50 5 7
50 6 13
50 7 5
50 8 10
50 9 8
50 10 9
50 11 4
50 12 4
50 13 13
50 14 15
50 15 11
50 16 2
50 17 12
50 18 5
50 19 1
50 20 15
50 21 9
50 22 11
50 23 8
50 24 13
50 25 10
50 26 4
50 27 2
50 28 5
50 29 12
50 30 2
50 31 14
50 32 14
50 33 14
50 34 1
50 35 8
50 36 6
50 37 1
50 38 15
50 39 9
50 40 15
50 41 4
50 42 7
50 43 2
50 44 8
50 45 3
50 46 1
50 47 2
50 48 4
50 49 1
51 0 1
51 1 4
51 2 11
51 3 6
51 4 3
51 5 15
51 6 14
51 7 11
51 8 7
51 9 8
51 10 8
51 11 7
51 12 2
51 13 15
51 14 10
51 15 1
51 16 7
51 17 9
51 18 7
51 19 7
51 20 3
51 21 1
51 22 6
51 23 13
51 24 9
51 25 13
51 26 7
51 27 4
51 28 6
51 29 12
51 30 9
51 31 5
51 32 1
51 33 15
51 34 3
51 35 5
51 36 2
51 37 5
51 38 11
51 39 14
51 40 12
51 41 1
51 42 5
51 43 5
51 44 12
51 45 8
51 46 2
51 47 3
51 48 10
51 49 8
51 50 5
52 0 10
52 1 1
52 2 3
52 3 10
52 4 11
52 5 5
52 6 15
52 7 10
52 8 6
52 9 9
52 10 1
52 11 11
52 12 15
52 13 12
52 14 5
52 15 9
52 16 1
52 17 13
52 18 14
52 19 5
52 20 13
52 21 12
52 22 4
52 23 14
52 24 1
52 25 15
52 26 12
52 27 7
52 28 8
52 29 15
52 30 11
52 31 5
52 32 1
52 33 2
52 34 12
52 35 3
52 36 5
52 37 12
52 38 1
52 39 5
52 40 7
52 41 8
52 42 7
52 43 6
52 44 10
52 45 15
52 46 14
52 47 1
52 48 1
52 49 3
52 50 8
52 51 4
53 0 5
53 1 3
53 2 10
53 3 3
53 4 11
53 5 10
53 6 3
53 7 15
53 8 9
53 9 15
53 10 14
53 11 10
53 12 8
53 13 7
53 14 13
53 15 14
53 16 7
53 17 13
53 18 9
53 19 8
53 20 1
53 21 12
53 22 9
53 23 6
53 24 8
53 25 14
53 26 8
53 27 6
53 28 9
53 29 1
53 30 9
53 31 13
53 32 14
53 33 4
53 34 8
53 35 14
53 36 11
53 37 10
53 38 10
53 39 4
53 40 12
53 41 3
53 42 14
53 43 6
53 44 11
53 45 8
53 46 11
53 47 8
53 48 3
53 49 5
53 50 6
53 51 6
53 52 9
